(set-logic ALL)
(declare-fun var0 () String)
(assert (str.in_re var0 (re.++ (re.* (re.union (str.to_re "00") (str.to_re "111"))) (re.++ (re.+ (re.* (str.to_re "2"))) (re.++ (re.* (re.* (str.to_re "333"))) (re.++ (re.union (re.union (str.to_re "44") (str.to_re "5")) (re.union (str.to_re "666") (str.to_re "7"))) (re.++ (re.+ (re.* (str.to_re "888"))) (re.++ (re.+ (re.+ (str.to_re "99"))) (re.++ (re.+ (re.* (str.to_re "a"))) (re.++ (re.* (re.+ (str.to_re "b"))) (re.++ (re.union (re.+ (str.to_re "ccc")) (re.+ (str.to_re "dd"))) (re.* (re.+ (str.to_re "eee"))))))))))))))
(assert (<= 1 (str.len var0)))
(check-sat)